# Objective value = 2.5062099999999996e+03
I_0_0 1932
I_0_1 2514
I_0_2 2140
I_0_3 2930
I_1_0 55
I_1_1 0
I_1_2 55
I_1_3 0
I_2_0 116
I_2_1 58
I_2_2 116
I_2_3 58
I_3_0 68
I_3_1 34
I_3_2 68
I_3_3 34
I_4_0 22
I_4_1 2.2000000000000032e+01
I_4_2 1.0999999999999968e+01
I_4_3 -3.2636946203920741e-14
I_5_0 95
I_5_1 0
I_5_2 95
I_5_3 0
I_6_0 126
I_6_1 126
I_6_2 62.9999999999999
I_6_3 -9.7161007078784449e-14
I_7_0 46
I_7_1 0
I_7_2 46
I_7_3 0
I_8_0 83
I_8_1 0
I_8_2 83
I_8_3 0
I_9_0 10
I_9_1 0
I_9_2 10
I_9_3 0
I_10_0 30
I_10_1 0
I_10_2 30
I_10_3 0
I_11_0 126
I_11_1 126
I_11_2 6.2999999999999893e+01
I_11_3 -1.0897663607900078e-13
I_12_0 83
I_12_1 0
I_12_2 83
I_12_3 0
I_13_0 36
I_13_1 0
I_13_2 36
I_13_3 0
I_14_0 142
I_14_1 142
I_14_2 71
I_14_3 0
I_15_0 104
I_15_1 5.2000000000000028e+01
I_15_2 104
I_15_3 5.1999999999999993e+01
q_1_0 0
q_1_1 110
q_1_2 0
q_2_0 0
q_2_1 116
q_2_2 0
q_3_0 0
q_3_1 68
q_3_2 7.1054273576010019e-15
q_4_0 1.1000000000000032e+01
q_4_1 -6.52738924078415e-14
q_4_2 0
q_5_0 0
q_5_1 190
q_5_2 0
q_6_0 63
q_6_1 -9.7161007078784449e-14
q_6_2 0
q_7_0 0
q_7_1 92
q_7_2 0
q_8_0 0
q_8_1 166
q_8_2 0
q_9_0 0
q_9_1 20
q_9_2 0
q_10_0 0
q_10_1 60
q_10_2 0
q_11_0 63
q_11_1 -1.0897663607900078e-13
q_11_2 0
q_12_0 0
q_12_1 166
q_12_2 0
q_13_0 0
q_13_1 72
q_13_2 0
q_14_0 71
q_14_1 0
q_14_2 0
q_15_0 2.7824667664383830e-14
q_15_1 1.0399999999999996e+02
q_15_2 0
y_0_0 1
y_0_1 1
y_0_2 0
y_1_0 0
y_1_1 1
y_1_2 0
y_2_0 0
y_2_1 1
y_2_2 0
y_3_0 0
y_3_1 1
y_3_2 5.5511151231257827e-17
y_4_0 1.0000000000000029e+00
y_4_1 -3.2596902704848823e-15
y_4_2 0
y_5_0 0
y_5_1 1
y_5_2 0
y_6_0 1
y_6_1 -8.2751138441575754e-16
y_6_2 0
y_7_0 0
y_7_1 1
y_7_2 0
y_8_0 0
y_8_1 1
y_8_2 0
y_9_0 0
y_9_1 1
y_9_2 0
y_10_0 0
y_10_1 1
y_10_2 0
y_11_0 1
y_11_1 -1.8267121065783991e-15
y_11_2 0
y_12_0 0
y_12_1 1
y_12_2 0
y_13_0 0
y_13_1 1
y_13_2 0
y_14_0 1
y_14_1 0
y_14_2 0
y_15_0 5.3508976277661213e-16
y_15_1 9.9999999999999967e-01
y_15_2 0
x_0_1_0 0
x_0_1_1 0
x_0_1_2 0
x_0_2_0 0
x_0_2_1 0
x_0_2_2 0
x_0_3_0 0
x_0_3_1 0
x_0_3_2 0
x_0_4_0 0
x_0_4_1 0
x_0_4_2 0
x_0_5_0 0
x_0_5_1 0
x_0_5_2 0
x_0_6_0 1
x_0_6_1 0
x_0_6_2 0
x_0_7_0 0
x_0_7_1 0
x_0_7_2 0
x_0_8_0 0
x_0_8_1 -9.9404483810953073e-16
x_0_8_2 0
x_0_9_0 0
x_0_9_1 0
x_0_9_2 0
x_0_10_0 0
x_0_10_1 0
x_0_10_2 0
x_0_11_0 0
x_0_11_1 0
x_0_11_2 0
x_0_12_0 0
x_0_12_1 1.0000000000000020e+00
x_0_12_2 0
x_0_13_0 0
x_0_13_1 3.1304515785158063e-16
x_0_13_2 0
x_0_14_0 0.999999999999999
x_0_14_1 0
x_0_14_2 0
x_0_15_0 1.0701795255532243e-15
x_0_15_1 9.9999999999999867e-01
x_0_15_2 0
x_1_2_0 0
x_1_2_1 1.0000000000000002e+00
x_1_2_2 0
x_1_3_0 0
x_1_3_1 0
x_1_3_2 0
x_1_4_0 0
x_1_4_1 -3.2596902704848823e-15
x_1_4_2 0
x_1_5_0 0
x_1_5_1 0
x_1_5_2 0
x_1_6_0 0
x_1_6_1 0
x_1_6_2 0
x_1_7_0 0
x_1_7_1 1.0000000000000022e+00
x_1_7_2 0
x_1_8_0 0
x_1_8_1 0
x_1_8_2 0
x_1_9_0 0
x_1_9_1 0
x_1_9_2 0
x_1_10_0 0
x_1_10_1 0
x_1_10_2 0
x_1_11_0 0
x_1_11_1 0
x_1_11_2 0
x_1_12_0 0
x_1_12_1 0
x_1_12_2 0
x_1_13_0 0
x_1_13_1 0
x_1_13_2 0
x_1_14_0 0
x_1_14_1 0
x_1_14_2 0
x_1_15_0 0
x_1_15_1 0
x_1_15_2 0
x_2_3_0 0
x_2_3_1 1.0000000000000002e+00
x_2_3_2 0
x_2_4_0 0
x_2_4_1 0
x_2_4_2 0
x_2_5_0 0
x_2_5_1 0
x_2_5_2 0
x_2_6_0 0
x_2_6_1 0
x_2_6_2 0
x_2_7_0 0
x_2_7_1 0
x_2_7_2 0
x_2_8_0 0
x_2_8_1 0
x_2_8_2 0
x_2_9_0 0
x_2_9_1 0
x_2_9_2 0
x_2_10_0 0
x_2_10_1 0
x_2_10_2 0
x_2_11_0 0
x_2_11_1 0
x_2_11_2 0
x_2_12_0 0
x_2_12_1 0
x_2_12_2 0
x_2_13_0 0
x_2_13_1 0
x_2_13_2 0
x_2_14_0 0
x_2_14_1 0
x_2_14_2 0
x_2_15_0 0
x_2_15_1 0
x_2_15_2 0
x_3_4_0 0
x_3_4_1 0
x_3_4_2 0
x_3_5_0 -1.5188228327799255e-15
x_3_5_1 1
x_3_5_2 0
x_3_6_0 2.4825341532472727e-15
x_3_6_1 0
x_3_6_2 0
x_3_7_0 -9.6371132046734723e-16
x_3_7_1 0
x_3_7_2 0
x_3_8_0 0
x_3_8_1 0
x_3_8_2 0
x_3_9_0 0
x_3_9_1 0
x_3_9_2 0
x_3_10_0 0
x_3_10_1 0
x_3_10_2 0
x_3_11_0 0
x_3_11_1 0
x_3_11_2 0
x_3_12_0 0
x_3_12_1 0
x_3_12_2 0
x_3_13_0 0
x_3_13_1 0
x_3_13_2 0
x_3_14_0 0
x_3_14_1 0
x_3_14_2 0
x_3_15_0 0
x_3_15_1 0
x_3_15_2 0
x_4_5_0 0
x_4_5_1 0
x_4_5_2 0
x_4_6_0 1.0000000000000038e+00
x_4_6_1 -1.6550227688315151e-15
x_4_6_2 0
x_4_7_0 0
x_4_7_1 0
x_4_7_2 0
x_4_8_0 0
x_4_8_1 0
x_4_8_2 0
x_4_9_0 0
x_4_9_1 -1.6046675016533674e-15
x_4_9_2 0
x_4_10_0 0
x_4_10_1 0
x_4_10_2 0
x_4_11_0 1.0000000000000038e+00
x_4_11_1 0
x_4_11_2 0
x_4_12_0 0
x_4_12_1 0
x_4_12_2 0
x_4_13_0 0
x_4_13_1 0
x_4_13_2 0
x_4_14_0 0
x_4_14_1 0
x_4_14_2 0
x_4_15_0 0
x_4_15_1 0
x_4_15_2 0
x_5_6_0 0
x_5_6_1 0
x_5_6_2 0
x_5_7_0 1.5188228327799255e-15
x_5_7_1 0
x_5_7_2 0
x_5_8_0 0
x_5_8_1 0
x_5_8_2 0
x_5_9_0 0
x_5_9_1 0
x_5_9_2 0
x_5_10_0 0
x_5_10_1 0
x_5_10_2 0
x_5_11_0 0
x_5_11_1 0
x_5_11_2 0
x_5_12_0 0
x_5_12_1 1
x_5_12_2 0
x_5_13_0 0
x_5_13_1 0
x_5_13_2 0
x_5_14_0 0
x_5_14_1 0
x_5_14_2 0
x_5_15_0 0
x_5_15_1 0
x_5_15_2 0
x_6_7_0 0
x_6_7_1 0
x_6_7_2 0
x_6_8_0 0
x_6_8_1 0
x_6_8_2 0
x_6_9_0 0
x_6_9_1 0
x_6_9_2 0
x_6_10_0 0
x_6_10_1 0
x_6_10_2 0
x_6_11_0 -4.7029802024975838e-15
x_6_11_1 0
x_6_11_2 0
x_6_12_0 0
x_6_12_1 0
x_6_12_2 0
x_6_13_0 0
x_6_13_1 0
x_6_13_2 0
x_6_14_0 -1.3723111286221174e-15
x_6_14_1 0
x_6_14_2 0
x_6_15_0 0
x_6_15_1 0
x_6_15_2 0
x_7_8_0 0
x_7_8_1 0
x_7_8_2 0
x_7_9_0 0
x_7_9_1 0
x_7_9_2 0
x_7_10_0 0
x_7_10_1 9.9999999999999989e-01
x_7_10_2 0
x_7_11_0 0
x_7_11_1 0
x_7_11_2 0
x_7_12_0 0
x_7_12_1 -2.2101342811440932e-15
x_7_12_2 0
x_7_13_0 0
x_7_13_1 0
x_7_13_2 0
x_7_14_0 0
x_7_14_1 0
x_7_14_2 0
x_7_15_0 0
x_7_15_1 0
x_7_15_2 0
x_8_9_0 0
x_8_9_1 1.0000000000000011e+00
x_8_9_2 0
x_8_10_0 0
x_8_10_1 0
x_8_10_2 0
x_8_11_0 0
x_8_11_1 0
x_8_11_2 0
x_8_12_0 0
x_8_12_1 0
x_8_12_2 0
x_8_13_0 0
x_8_13_1 1
x_8_13_2 0
x_8_14_0 0
x_8_14_1 0
x_8_14_2 0
x_8_15_0 0
x_8_15_1 0
x_8_15_2 0
x_9_10_0 0
x_9_10_1 1.0000000000000013e+00
x_9_10_2 0
x_9_11_0 0
x_9_11_1 -1.8267121065783991e-15
x_9_11_2 0
x_9_12_0 0
x_9_12_1 0
x_9_12_2 0
x_9_13_0 0
x_9_13_1 -9.9404483810953073e-16
x_9_13_2 0
x_9_14_0 0
x_9_14_1 0
x_9_14_2 0
x_9_15_0 0
x_9_15_1 0
x_9_15_2 0
x_10_11_0 0
x_10_11_1 -1.8267121065783991e-15
x_10_11_2 0
x_10_12_0 0
x_10_12_1 0
x_10_12_2 0
x_10_13_0 0
x_10_13_1 0
x_10_13_2 0
x_10_14_0 0
x_10_14_1 0
x_10_14_2 0
x_10_15_0 0
x_10_15_1 0
x_10_15_2 0
x_11_12_0 0
x_11_12_1 0
x_11_12_2 0
x_11_13_0 0
x_11_13_1 0
x_11_13_2 0
x_11_14_0 1.0000000000000016e+00
x_11_14_1 0
x_11_14_2 0
x_11_15_0 0
x_11_15_1 0
x_11_15_2 0
x_12_13_0 0
x_12_13_1 0
x_12_13_2 0
x_12_14_0 0
x_12_14_1 0
x_12_14_2 0
x_12_15_0 0
x_12_15_1 0
x_12_15_2 0
x_13_14_0 0
x_13_14_1 0
x_13_14_2 0
x_13_15_0 0
x_13_15_1 1.0000000000000007e+00
x_13_15_2 0
x_14_15_0 0
x_14_15_1 0
x_14_15_2 0
